
Gurobi 10.0.1 (linux64) logging started Sun Nov 26 15:52:08 2023

Set parameter LogFile to value "ArtificialInstance/ExperimentV2/S2T4K2/BaSp/gurobi91.txt"
Gurobi Optimizer version 10.0.1 build v10.0.1rc0 (linux64)

CPU model: AMD EPYC 7H12 64-Core Processor, instruction set [SSE2|AVX|AVX2]
Thread count: 128 physical cores, 128 logical processors, using up to 32 threads

Academic license 656792 - for non-commercial use only - registered to b.___@student.vu.nl
Optimize a model with 2050 rows, 3120 columns and 10400 nonzeros
Model fingerprint: 0x78f9b90c
Variable types: 0 continuous, 3120 integer (3120 binary)
Coefficient statistics:
  Matrix range     [1e+00, 1e+00]
  Objective range  [2e+00, 2e+01]
  Bounds range     [1e+00, 1e+00]
  RHS range        [1e+00, 1e+00]
Found heuristic solution: objective 641.0328958
Presolve time: 0.01s
Presolved: 2050 rows, 3120 columns, 10400 nonzeros
Variable types: 0 continuous, 3120 integer (3120 binary)

Root relaxation: objective 3.914917e+01, 1626 iterations, 0.03 seconds (0.03 work units)

    Nodes    |    Current Node    |     Objective Bounds      |     Work
 Expl Unexpl |  Obj  Depth IntInf | Incumbent    BestBd   Gap | It/Node Time

     0     0   39.14917    0  298  641.03290   39.14917  93.9%     -    0s
H    0     0                     216.3477090   39.14917  81.9%     -    0s
H    0     0                      61.3947650   39.14917  36.2%     -    0s
     0     0   44.37101    0  288   61.39477   44.37101  27.7%     -    0s
H    0     0                      59.4563276   44.37101  25.4%     -    0s
H    0     0                      58.6162673   44.37101  24.3%     -    0s
     0     0   46.57708    0  457   58.61627   46.57708  20.5%     -    0s
     0     0   47.13574    0  494   58.61627   47.13574  19.6%     -    0s
     0     0   49.35514    0  524   58.61627   49.35514  15.8%     -    0s
     0     0   49.40783    0  542   58.61627   49.40783  15.7%     -    0s
     0     0   51.13981    0  703   58.61627   51.13981  12.8%     -    0s
     0     0   51.18950    0  628   58.61627   51.18950  12.7%     -    0s
H    0     0                      57.2460619   51.18950  10.6%     -    1s
     0     0   51.18950    0  292   57.24606   51.18950  10.6%     -    1s
     0     0   51.18950    0  439   57.24606   51.18950  10.6%     -    1s
     0     0   51.18950    0  614   57.24606   51.18950  10.6%     -    1s
     0     0   51.18950    0  555   57.24606   51.18950  10.6%     -    1s
     0     0   51.18950    0  553   57.24606   51.18950  10.6%     -    1s
     0     0   51.18950    0  536   57.24606   51.18950  10.6%     -    1s
     0     0   51.18950    0  537   57.24606   51.18950  10.6%     -    1s
     0     0   51.18950    0  576   57.24606   51.18950  10.6%     -    1s
     0     0   51.18950    0  572   57.24606   51.18950  10.6%     -    1s
     0     0   51.18950    0  591   57.24606   51.18950  10.6%     -    1s
     0     0   51.18950    0  592   57.24606   51.18950  10.6%     -    1s
     0     0   51.18950    0  584   57.24606   51.18950  10.6%     -    2s
     0     0   51.18950    0  572   57.24606   51.18950  10.6%     -    2s
     0     0   51.18950    0  663   57.24606   51.18950  10.6%     -    2s
     0     0   51.20709    0  678   57.24606   51.20709  10.5%     -    2s
     0     0   51.20770    0  677   57.24606   51.20770  10.5%     -    2s
     0     0   52.01477    0  585   57.24606   52.01477  9.14%     -    2s
     0     0   52.07021    0  648   57.24606   52.07021  9.04%     -    2s
     0     0   52.07903    0  641   57.24606   52.07903  9.03%     -    2s
     0     0   52.45817    0  543   57.24606   52.45817  8.36%     -    2s
     0     0   52.45817    0  494   57.24606   52.45817  8.36%     -    2s
     0     2   52.45817    0  493   57.24606   52.45817  8.36%     -    2s

Cutting planes:
  Gomory: 13
  Zero half: 73
  RLT: 52

Explored 137 nodes (29852 simplex iterations) in 2.79 seconds (1.72 work units)
Thread count was 32 (of 128 available processors)

Solution count 6: 57.2461 58.6163 59.4563 ... 641.033

Optimal solution found (tolerance 1.00e-04)
Best objective 5.724606191510e+01, best bound 5.724606191510e+01, gap 0.0000%
